\* column_knapsack_problem *\
Minimize
knapsack: col_0 + 4 col_1 + 4 col_10 + 4 col_100 + col_101 + col_102 + col_103
 + col_104 + col_106 + 2 col_107 + 2 col_109 + 4 col_11 + 2 col_110
 + 3 col_112 + col_113 + 2 col_115 + 2 col_116 + 3 col_117 + 3 col_118
 + 5 col_119 + 3 col_12 + col_120 + 5 col_121 + 3 col_122 + 5 col_123
 + 4 col_124 + 2 col_125 + col_127 + 2 col_128 + col_129 + 4 col_13 + col_130
 + col_131 + 3 col_132 + col_133 + 2 col_134 + col_135 + 4 col_136 + 2 col_137
 + 2 col_138 + 6 col_139 + 4 col_14 + col_140 + 4 col_141 + col_142
 + 2 col_143 + 5 col_144 + col_145 + 4 col_146 + col_147 + 5 col_148
 + 5 col_149 + 4 col_15 + 2 col_150 + col_151 + 2 col_152 + col_153
 + 2 col_154 + 2 col_155 + 2 col_156 + 2 col_157 + 3 col_158 + col_159
 + 4 col_16 + 2 col_160 + 2 col_161 + 2 col_162 + 3 col_163 + 4 col_164
 + 4 col_165 + 3 col_166 + col_167 + 4 col_168 + col_169 + col_170 + 2 col_171
 + col_172 + 4 col_173 + 3 col_174 + col_175 + col_176 + 3 col_177 + 5 col_178
 + col_179 + 6 col_18 + 5 col_180 + 4 col_181 + col_182 + 4 col_183
 + 4 col_184 + 2 col_185 + col_186 + 3 col_187 + 4 col_188 + col_189
 + 5 col_19 + 2 col_190 + col_191 + 3 col_192 + col_193 + 2 col_194
 + 4 col_195 + 4 col_196 + col_197 + col_198 + 3 col_199 + 2 col_2 + 3 col_200
 + 6 col_201 + 2 col_202 + 2 col_203 + 2 col_204 + 3 col_205 + 2 col_206
 + col_207 + 5 col_208 + 2 col_209 + 6 col_21 + col_211 + 2 col_212 + col_213
 + col_214 + 2 col_215 + 5 col_216 + 2 col_217 + col_218 + 4 col_219
 + 3 col_22 + 3 col_220 + 2 col_221 + 3 col_222 + 3 col_223 + 2 col_224
 + 2 col_225 + 3 col_226 + 2 col_228 + col_229 + 4 col_23 + 2 col_230
 + col_231 + col_232 + 2 col_233 + 3 col_234 + 2 col_235 + 2 col_236 + col_237
 + col_239 + 4 col_24 + 2 col_240 + 3 col_241 + 3 col_243 + 3 col_244
 + 2 col_245 + 3 col_246 + col_247 + 2 col_248 + col_249 + 4 col_25 + col_250
 + 2 col_251 + 2 col_252 + 4 col_253 + col_254 + col_255 + 3 col_256
 + 4 col_257 + 2 col_258 + col_259 + 4 col_26 + 3 col_260 + 4 col_261
 + col_262 + 2 col_263 + 2 col_264 + 3 col_265 + 3 col_266 + col_267
 + 3 col_268 + 3 col_269 + 5 col_27 + col_270 + 3 col_271 + col_272
 + 2 col_273 + 3 col_274 + 2 col_275 + col_276 + 4 col_277 + col_278
 + 3 col_279 + 3 col_28 + 3 col_280 + 4 col_281 + 2 col_282 + col_283
 + 2 col_284 + 3 col_285 + 2 col_286 + 4 col_287 + 2 col_288 + 4 col_289
 + 5 col_29 + 3 col_290 + col_291 + 5 col_292 + col_293 + col_294 + 2 col_297
 + 3 col_298 + col_299 + 3 col_3 + 3 col_30 + 2 col_300 + 5 col_301
 + 2 col_302 + 4 col_303 + 3 col_304 + 4 col_305 + 4 col_306 + 2 col_307
 + 4 col_308 + 5 col_309 + 3 col_31 + 7 col_310 + 4 col_311 + 4 col_312
 + 2 col_313 + 4 col_314 + 2 col_315 + 4 col_316 + 3 col_317 + 2 col_318
 + col_319 + 4 col_32 + 2 col_320 + 2 col_321 + 2 col_322 + 3 col_323
 + 3 col_324 + col_325 + 5 col_326 + col_327 + 2 col_328 + 2 col_329
 + 4 col_330 + 3 col_331 + 3 col_332 + 2 col_333 + 4 col_334 + col_335
 + col_336 + 4 col_337 + col_338 + 2 col_339 + 4 col_34 + col_340 + 5 col_341
 + 4 col_342 + 4 col_343 + 5 col_345 + 4 col_346 + 3 col_347 + col_349
 + col_35 + 4 col_350 + 4 col_351 + 2 col_353 + col_354 + col_355 + 2 col_356
 + 3 col_358 + 2 col_359 + 2 col_36 + 2 col_360 + col_361 + 2 col_362
 + col_363 + 3 col_364 + 2 col_365 + col_366 + 2 col_367 + 3 col_368
 + 2 col_369 + 3 col_37 + 2 col_370 + 4 col_371 + 3 col_372 + 2 col_373
 + col_374 + 3 col_375 + col_376 + 5 col_377 + col_378 + 3 col_379 + 4 col_38
 + 2 col_380 + 5 col_381 + 2 col_382 + 3 col_383 + 5 col_384 + 2 col_385
 + 2 col_386 + 2 col_387 + 2 col_388 + 4 col_389 + 3 col_39 + 3 col_390
 + col_391 + 2 col_392 + col_393 + 2 col_394 + 2 col_395 + 2 col_396 + col_397
 + 2 col_398 + 3 col_399 + col_4 + 4 col_40 + col_400 + col_401 + 3 col_402
 + 3 col_403 + 4 col_404 + 3 col_405 + col_406 + 3 col_407 + 2 col_408
 + col_409 + 3 col_41 + 2 col_410 + 4 col_411 + 4 col_412 + col_413
 + 4 col_414 + 2 col_415 + 2 col_416 + 3 col_417 + 5 col_418 + 2 col_419
 + 2 col_420 + 2 col_421 + 4 col_423 + 3 col_425 + 3 col_426 + col_427
 + col_429 + 2 col_430 + 4 col_431 + col_433 + 4 col_435 + 2 col_436
 + 4 col_437 + col_438 + 3 col_439 + 3 col_44 + 4 col_441 + 4 col_442
 + 7 col_443 + col_444 + 4 col_445 + 4 col_446 + 4 col_447 + 4 col_448
 + 4 col_449 + 3 col_45 + 5 col_450 + 4 col_452 + 4 col_453 + 3 col_454
 + 4 col_455 + 5 col_456 + col_457 + 4 col_458 + 3 col_459 + col_46
 + 4 col_460 + 3 col_461 + 4 col_462 + 4 col_463 + 4 col_464 + col_465
 + 4 col_47 + col_48 + col_49 + 4 col_5 + 3 col_50 + col_51 + 2 col_52
 + 2 col_53 + 2 col_54 + 3 col_55 + 2 col_56 + 3 col_57 + col_58 + 2 col_59
 + col_60 + 5 col_61 + 3 col_62 + 4 col_63 + col_64 + col_65 + col_66
 + 2 col_67 + 2 col_68 + 3 col_7 + 3 col_70 + 3 col_71 + 3 col_72 + 3 col_73
 + 2 col_74 + 4 col_75 + 2 col_76 + col_77 + 2 col_78 + 4 col_79 + col_8
 + 4 col_80 + 3 col_81 + 2 col_82 + 3 col_83 + 3 col_84 + 2 col_86 + 2 col_87
 + 3 col_88 + 2 col_89 + 3 col_9 + 2 col_90 + 2 col_91 + 3 col_92 + 3 col_93
 + 3 col_94 + 4 col_95 + 2 col_96 + 2 col_97 + 2 col_98 + 3 col_99
Subject To
sensitivity: 6 col_0 + 3 col_1 + 3 col_10 + 3 col_100 + 6 col_101 + 6 col_102
 + 6 col_103 + 6 col_104 + 6 col_106 + 5 col_107 + 5 col_109 + 3 col_11
 + 5 col_110 + 4 col_112 + 6 col_113 + 5 col_115 + 5 col_116 + 4 col_117
 + 4 col_118 + 2 col_119 + 4 col_12 + 6 col_120 + 2 col_121 + 4 col_122
 + 2 col_123 + 3 col_124 + 5 col_125 + 6 col_127 + 5 col_128 + 6 col_129
 + 3 col_13 + 6 col_130 + 6 col_131 + 4 col_132 + 6 col_133 + 5 col_134
 + 6 col_135 + 3 col_136 + 5 col_137 + 5 col_138 + col_139 + 3 col_14
 + 6 col_140 + 3 col_141 + 6 col_142 + 5 col_143 + 2 col_144 + 6 col_145
 + 3 col_146 + 6 col_147 + 2 col_148 + 2 col_149 + 3 col_15 + 5 col_150
 + 6 col_151 + 5 col_152 + 6 col_153 + 5 col_154 + 5 col_155 + 5 col_156
 + 5 col_157 + 4 col_158 + 6 col_159 + 3 col_16 + 5 col_160 + 5 col_161
 + 5 col_162 + 4 col_163 + 3 col_164 + 3 col_165 + 4 col_166 + 6 col_167
 + 3 col_168 + 6 col_169 + 6 col_170 + 5 col_171 + 6 col_172 + 3 col_173
 + 4 col_174 + 6 col_175 + 6 col_176 + 4 col_177 + 2 col_178 + 6 col_179
 + col_18 + 2 col_180 + 3 col_181 + 6 col_182 + 3 col_183 + 3 col_184
 + 5 col_185 + 6 col_186 + 4 col_187 + 3 col_188 + 6 col_189 + 2 col_19
 + 5 col_190 + 6 col_191 + 4 col_192 + 6 col_193 + 5 col_194 + 3 col_195
 + 3 col_196 + 6 col_197 + 6 col_198 + 4 col_199 + 5 col_2 + 4 col_200
 + col_201 + 5 col_202 + 5 col_203 + 5 col_204 + 4 col_205 + 5 col_206
 + 6 col_207 + 2 col_208 + 5 col_209 + col_21 + 6 col_211 + 5 col_212
 + 6 col_213 + 6 col_214 + 5 col_215 + 2 col_216 + 5 col_217 + 6 col_218
 + 3 col_219 + 4 col_22 + 4 col_220 + 5 col_221 + 4 col_222 + 4 col_223
 + 5 col_224 + 5 col_225 + 4 col_226 + 5 col_228 + 6 col_229 + 3 col_23
 + 5 col_230 + 6 col_231 + 6 col_232 + 5 col_233 + 4 col_234 + 5 col_235
 + 5 col_236 + 6 col_237 + 6 col_239 + 3 col_24 + 5 col_240 + 4 col_241
 + 4 col_243 + 4 col_244 + 5 col_245 + 4 col_246 + 6 col_247 + 5 col_248
 + 6 col_249 + 3 col_25 + 6 col_250 + 5 col_251 + 5 col_252 + 3 col_253
 + 6 col_254 + 6 col_255 + 4 col_256 + 3 col_257 + 5 col_258 + 6 col_259
 + 3 col_26 + 4 col_260 + 3 col_261 + 6 col_262 + 5 col_263 + 5 col_264
 + 4 col_265 + 4 col_266 + 6 col_267 + 4 col_268 + 4 col_269 + 2 col_27
 + 6 col_270 + 4 col_271 + 6 col_272 + 5 col_273 + 4 col_274 + 5 col_275
 + 6 col_276 + 3 col_277 + 6 col_278 + 4 col_279 + 4 col_28 + 4 col_280
 + 3 col_281 + 5 col_282 + 6 col_283 + 5 col_284 + 4 col_285 + 5 col_286
 + 3 col_287 + 5 col_288 + 3 col_289 + 2 col_29 + 4 col_290 + 6 col_291
 + 2 col_292 + 6 col_293 + 6 col_294 + 5 col_297 + 4 col_298 + 6 col_299
 + 4 col_3 + 4 col_30 + 5 col_300 + 2 col_301 + 5 col_302 + 3 col_303
 + 4 col_304 + 3 col_305 + 3 col_306 + 5 col_307 + 3 col_308 + 2 col_309
 + 4 col_31 + 3 col_311 + 3 col_312 + 5 col_313 + 3 col_314 + 5 col_315
 + 3 col_316 + 4 col_317 + 5 col_318 + 6 col_319 + 3 col_32 + 5 col_320
 + 5 col_321 + 5 col_322 + 4 col_323 + 4 col_324 + 6 col_325 + 2 col_326
 + 6 col_327 + 5 col_328 + 5 col_329 + 3 col_330 + 4 col_331 + 4 col_332
 + 5 col_333 + 3 col_334 + 6 col_335 + 6 col_336 + 3 col_337 + 6 col_338
 + 5 col_339 + 3 col_34 + 6 col_340 + 2 col_341 + 3 col_342 + 3 col_343
 + 2 col_345 + 3 col_346 + 4 col_347 + 6 col_349 + 6 col_35 + 3 col_350
 + 3 col_351 + 5 col_353 + 6 col_354 + 6 col_355 + 5 col_356 + 4 col_358
 + 5 col_359 + 5 col_36 + 5 col_360 + 6 col_361 + 5 col_362 + 6 col_363
 + 4 col_364 + 5 col_365 + 6 col_366 + 5 col_367 + 4 col_368 + 5 col_369
 + 4 col_37 + 5 col_370 + 3 col_371 + 4 col_372 + 5 col_373 + 6 col_374
 + 4 col_375 + 6 col_376 + 2 col_377 + 6 col_378 + 4 col_379 + 3 col_38
 + 5 col_380 + 2 col_381 + 5 col_382 + 4 col_383 + 2 col_384 + 5 col_385
 + 5 col_386 + 5 col_387 + 5 col_388 + 3 col_389 + 4 col_39 + 4 col_390
 + 6 col_391 + 5 col_392 + 6 col_393 + 5 col_394 + 5 col_395 + 5 col_396
 + 6 col_397 + 5 col_398 + 4 col_399 + 6 col_4 + 3 col_40 + 6 col_400
 + 6 col_401 + 4 col_402 + 4 col_403 + 3 col_404 + 4 col_405 + 6 col_406
 + 4 col_407 + 5 col_408 + 6 col_409 + 4 col_41 + 5 col_410 + 3 col_411
 + 3 col_412 + 6 col_413 + 3 col_414 + 5 col_415 + 5 col_416 + 4 col_417
 + 2 col_418 + 5 col_419 + 5 col_420 + 5 col_421 + 3 col_423 + 4 col_425
 + 4 col_426 + 6 col_427 + 6 col_429 + 5 col_430 + 3 col_431 + 6 col_433
 + 3 col_435 + 5 col_436 + 3 col_437 + 6 col_438 + 4 col_439 + 4 col_44
 + 3 col_441 + 3 col_442 + 6 col_444 + 3 col_445 + 3 col_446 + 3 col_447
 + 3 col_448 + 3 col_449 + 4 col_45 + 2 col_450 + 3 col_452 + 3 col_453
 + 4 col_454 + 3 col_455 + 2 col_456 + 6 col_457 + 3 col_458 + 4 col_459
 + 6 col_46 + 3 col_460 + 4 col_461 + 3 col_462 + 3 col_463 + 3 col_464
 + 6 col_465 + 3 col_47 + 6 col_48 + 6 col_49 + 3 col_5 + 4 col_50 + 6 col_51
 + 5 col_52 + 5 col_53 + 5 col_54 + 4 col_55 + 5 col_56 + 4 col_57 + 6 col_58
 + 5 col_59 + 6 col_60 + 2 col_61 + 4 col_62 + 3 col_63 + 6 col_64 + 6 col_65
 + 6 col_66 + 5 col_67 + 5 col_68 + 4 col_7 + 4 col_70 + 4 col_71 + 4 col_72
 + 4 col_73 + 5 col_74 + 3 col_75 + 5 col_76 + 6 col_77 + 5 col_78 + 3 col_79
 + 6 col_8 + 3 col_80 + 4 col_81 + 5 col_82 + 4 col_83 + 4 col_84 + 5 col_86
 + 5 col_87 + 4 col_88 + 5 col_89 + 4 col_9 + 5 col_90 + 5 col_91 + 4 col_92
 + 4 col_93 + 4 col_94 + 3 col_95 + 5 col_96 + 5 col_97 + 5 col_98 + 4 col_99
 >= 191.7
Bounds
 col_0 <= 1
 col_1 <= 1
 col_10 <= 1
 col_100 <= 1
 col_101 <= 1
 col_102 <= 1
 col_103 <= 1
 col_104 <= 1
 col_106 <= 1
 col_107 <= 1
 col_109 <= 1
 col_11 <= 1
 col_110 <= 1
 col_112 <= 1
 col_113 <= 1
 col_115 <= 1
 col_116 <= 1
 col_117 <= 1
 col_118 <= 1
 col_119 <= 1
 col_12 <= 1
 col_120 <= 1
 col_121 <= 1
 col_122 <= 1
 col_123 <= 1
 col_124 <= 1
 col_125 <= 1
 col_127 <= 1
 col_128 <= 1
 col_129 <= 1
 col_13 <= 1
 col_130 <= 1
 col_131 <= 1
 col_132 <= 1
 col_133 <= 1
 col_134 <= 1
 col_135 <= 1
 col_136 <= 1
 col_137 <= 1
 col_138 <= 1
 col_139 <= 1
 col_14 <= 1
 col_140 <= 1
 col_141 <= 1
 col_142 <= 1
 col_143 <= 1
 col_144 <= 1
 col_145 <= 1
 col_146 <= 1
 col_147 <= 1
 col_148 <= 1
 col_149 <= 1
 col_15 <= 1
 col_150 <= 1
 col_151 <= 1
 col_152 <= 1
 col_153 <= 1
 col_154 <= 1
 col_155 <= 1
 col_156 <= 1
 col_157 <= 1
 col_158 <= 1
 col_159 <= 1
 col_16 <= 1
 col_160 <= 1
 col_161 <= 1
 col_162 <= 1
 col_163 <= 1
 col_164 <= 1
 col_165 <= 1
 col_166 <= 1
 col_167 <= 1
 col_168 <= 1
 col_169 <= 1
 col_170 <= 1
 col_171 <= 1
 col_172 <= 1
 col_173 <= 1
 col_174 <= 1
 col_175 <= 1
 col_176 <= 1
 col_177 <= 1
 col_178 <= 1
 col_179 <= 1
 col_18 <= 1
 col_180 <= 1
 col_181 <= 1
 col_182 <= 1
 col_183 <= 1
 col_184 <= 1
 col_185 <= 1
 col_186 <= 1
 col_187 <= 1
 col_188 <= 1
 col_189 <= 1
 col_19 <= 1
 col_190 <= 1
 col_191 <= 1
 col_192 <= 1
 col_193 <= 1
 col_194 <= 1
 col_195 <= 1
 col_196 <= 1
 col_197 <= 1
 col_198 <= 1
 col_199 <= 1
 col_2 <= 1
 col_200 <= 1
 col_201 <= 1
 col_202 <= 1
 col_203 <= 1
 col_204 <= 1
 col_205 <= 1
 col_206 <= 1
 col_207 <= 1
 col_208 <= 1
 col_209 <= 1
 col_21 <= 1
 col_211 <= 1
 col_212 <= 1
 col_213 <= 1
 col_214 <= 1
 col_215 <= 1
 col_216 <= 1
 col_217 <= 1
 col_218 <= 1
 col_219 <= 1
 col_22 <= 1
 col_220 <= 1
 col_221 <= 1
 col_222 <= 1
 col_223 <= 1
 col_224 <= 1
 col_225 <= 1
 col_226 <= 1
 col_228 <= 1
 col_229 <= 1
 col_23 <= 1
 col_230 <= 1
 col_231 <= 1
 col_232 <= 1
 col_233 <= 1
 col_234 <= 1
 col_235 <= 1
 col_236 <= 1
 col_237 <= 1
 col_239 <= 1
 col_24 <= 1
 col_240 <= 1
 col_241 <= 1
 col_243 <= 1
 col_244 <= 1
 col_245 <= 1
 col_246 <= 1
 col_247 <= 1
 col_248 <= 1
 col_249 <= 1
 col_25 <= 1
 col_250 <= 1
 col_251 <= 1
 col_252 <= 1
 col_253 <= 1
 col_254 <= 1
 col_255 <= 1
 col_256 <= 1
 col_257 <= 1
 col_258 <= 1
 col_259 <= 1
 col_26 <= 1
 col_260 <= 1
 col_261 <= 1
 col_262 <= 1
 col_263 <= 1
 col_264 <= 1
 col_265 <= 1
 col_266 <= 1
 col_267 <= 1
 col_268 <= 1
 col_269 <= 1
 col_27 <= 1
 col_270 <= 1
 col_271 <= 1
 col_272 <= 1
 col_273 <= 1
 col_274 <= 1
 col_275 <= 1
 col_276 <= 1
 col_277 <= 1
 col_278 <= 1
 col_279 <= 1
 col_28 <= 1
 col_280 <= 1
 col_281 <= 1
 col_282 <= 1
 col_283 <= 1
 col_284 <= 1
 col_285 <= 1
 col_286 <= 1
 col_287 <= 1
 col_288 <= 1
 col_289 <= 1
 col_29 <= 1
 col_290 <= 1
 col_291 <= 1
 col_292 <= 1
 col_293 <= 1
 col_294 <= 1
 col_297 <= 1
 col_298 <= 1
 col_299 <= 1
 col_3 <= 1
 col_30 <= 1
 col_300 <= 1
 col_301 <= 1
 col_302 <= 1
 col_303 <= 1
 col_304 <= 1
 col_305 <= 1
 col_306 <= 1
 col_307 <= 1
 col_308 <= 1
 col_309 <= 1
 col_31 <= 1
 col_310 <= 1
 col_311 <= 1
 col_312 <= 1
 col_313 <= 1
 col_314 <= 1
 col_315 <= 1
 col_316 <= 1
 col_317 <= 1
 col_318 <= 1
 col_319 <= 1
 col_32 <= 1
 col_320 <= 1
 col_321 <= 1
 col_322 <= 1
 col_323 <= 1
 col_324 <= 1
 col_325 <= 1
 col_326 <= 1
 col_327 <= 1
 col_328 <= 1
 col_329 <= 1
 col_330 <= 1
 col_331 <= 1
 col_332 <= 1
 col_333 <= 1
 col_334 <= 1
 col_335 <= 1
 col_336 <= 1
 col_337 <= 1
 col_338 <= 1
 col_339 <= 1
 col_34 <= 1
 col_340 <= 1
 col_341 <= 1
 col_342 <= 1
 col_343 <= 1
 col_345 <= 1
 col_346 <= 1
 col_347 <= 1
 col_349 <= 1
 col_35 <= 1
 col_350 <= 1
 col_351 <= 1
 col_353 <= 1
 col_354 <= 1
 col_355 <= 1
 col_356 <= 1
 col_358 <= 1
 col_359 <= 1
 col_36 <= 1
 col_360 <= 1
 col_361 <= 1
 col_362 <= 1
 col_363 <= 1
 col_364 <= 1
 col_365 <= 1
 col_366 <= 1
 col_367 <= 1
 col_368 <= 1
 col_369 <= 1
 col_37 <= 1
 col_370 <= 1
 col_371 <= 1
 col_372 <= 1
 col_373 <= 1
 col_374 <= 1
 col_375 <= 1
 col_376 <= 1
 col_377 <= 1
 col_378 <= 1
 col_379 <= 1
 col_38 <= 1
 col_380 <= 1
 col_381 <= 1
 col_382 <= 1
 col_383 <= 1
 col_384 <= 1
 col_385 <= 1
 col_386 <= 1
 col_387 <= 1
 col_388 <= 1
 col_389 <= 1
 col_39 <= 1
 col_390 <= 1
 col_391 <= 1
 col_392 <= 1
 col_393 <= 1
 col_394 <= 1
 col_395 <= 1
 col_396 <= 1
 col_397 <= 1
 col_398 <= 1
 col_399 <= 1
 col_4 <= 1
 col_40 <= 1
 col_400 <= 1
 col_401 <= 1
 col_402 <= 1
 col_403 <= 1
 col_404 <= 1
 col_405 <= 1
 col_406 <= 1
 col_407 <= 1
 col_408 <= 1
 col_409 <= 1
 col_41 <= 1
 col_410 <= 1
 col_411 <= 1
 col_412 <= 1
 col_413 <= 1
 col_414 <= 1
 col_415 <= 1
 col_416 <= 1
 col_417 <= 1
 col_418 <= 1
 col_419 <= 1
 col_420 <= 1
 col_421 <= 1
 col_423 <= 1
 col_425 <= 1
 col_426 <= 1
 col_427 <= 1
 col_429 <= 1
 col_430 <= 1
 col_431 <= 1
 col_433 <= 1
 col_435 <= 1
 col_436 <= 1
 col_437 <= 1
 col_438 <= 1
 col_439 <= 1
 col_44 <= 1
 col_441 <= 1
 col_442 <= 1
 col_443 <= 1
 col_444 <= 1
 col_445 <= 1
 col_446 <= 1
 col_447 <= 1
 col_448 <= 1
 col_449 <= 1
 col_45 <= 1
 col_450 <= 1
 col_452 <= 1
 col_453 <= 1
 col_454 <= 1
 col_455 <= 1
 col_456 <= 1
 col_457 <= 1
 col_458 <= 1
 col_459 <= 1
 col_46 <= 1
 col_460 <= 1
 col_461 <= 1
 col_462 <= 1
 col_463 <= 1
 col_464 <= 1
 col_465 <= 1
 col_47 <= 1
 col_48 <= 1
 col_49 <= 1
 col_5 <= 1
 col_50 <= 1
 col_51 <= 1
 col_52 <= 1
 col_53 <= 1
 col_54 <= 1
 col_55 <= 1
 col_56 <= 1
 col_57 <= 1
 col_58 <= 1
 col_59 <= 1
 col_60 <= 1
 col_61 <= 1
 col_62 <= 1
 col_63 <= 1
 col_64 <= 1
 col_65 <= 1
 col_66 <= 1
 col_67 <= 1
 col_68 <= 1
 col_7 <= 1
 col_70 <= 1
 col_71 <= 1
 col_72 <= 1
 col_73 <= 1
 col_74 <= 1
 col_75 <= 1
 col_76 <= 1
 col_77 <= 1
 col_78 <= 1
 col_79 <= 1
 col_8 <= 1
 col_80 <= 1
 col_81 <= 1
 col_82 <= 1
 col_83 <= 1
 col_84 <= 1
 col_86 <= 1
 col_87 <= 1
 col_88 <= 1
 col_89 <= 1
 col_9 <= 1
 col_90 <= 1
 col_91 <= 1
 col_92 <= 1
 col_93 <= 1
 col_94 <= 1
 col_95 <= 1
 col_96 <= 1
 col_97 <= 1
 col_98 <= 1
 col_99 <= 1
End
